peakDumbCharging = 14800; 
Machine = anon_enum(16); 
machineSpeed = [3700,3700,3700,3700,3700,3700,3700,3700,3700,3700,3700,3700,3700,3700,3700,3700]; 
machineLoad = [3700,3700,3700,3700,3700,3700,3700,3700,3700,3700,3700,3700,3700,3700,3700,3700]; 
Car = anon_enum(15); 
demandCar = [30480,5920,16200,28400,10360,14520,8080,22480,10440,7680,3760,11920,25480,16880,32000]; 
arrivalCar = [71,70,69,69,67,65,64,61,57,57,42,41,39,35,30]; 
departureCar = [82,73,75,78,74,71,67,70,61,60,45,47,49,43,53]; 
